r = [
0,48,1,12,62,27,98,94,111,20,73,0
];
p = [
0,27,15,13,28,29,27,23,30,12,17,0
];
e = [
0,13,11,20,2,17,17,7,3,16,20,0
];
d = [
0,125,139,173,205,120,165,246,231,178,237,258
];
d_bar = [
0,139,147,180,219,135,179,258,246,184,246,258
];
w = [
0,0.928571429,1.375,2.857142857,0.142857143,1.133333333,1.214285714,0.583333333,0.2,2.666666667,2.222222222,0
];
